
n_res = 4;
rcap = [51, 43, 394, 405];
rtype = [1, 1, 2, 2];
n_tasks = 100;
modes =  [{1, 2, 3}, {4, 5, 6}, {7, 8, 9}, {10, 11, 12}, {13, 14, 15}, {16, 17, 18}, {19, 20, 21}, {22, 23, 24}, {25, 26, 27}, {28, 29, 30}, {31, 32, 33}, {34, 35, 36}, {37, 38, 39}, {40, 41, 42}, {43, 44, 45}, {46, 47, 48}, {49, 50, 51}, {52, 53, 54}, {55, 56, 57}, {58, 59, 60}, {61, 62, 63}, {64, 65, 66}, {67, 68, 69}, {70, 71, 72}, {73, 74, 75}, {76, 77, 78}, {79, 80, 81}, {82, 83, 84}, {85, 86, 87}, {88, 89, 90}, {91, 92, 93}, {94, 95, 96}, {97, 98, 99}, {100, 101, 102}, {103, 104, 105}, {106, 107, 108}, {109, 110, 111}, {112, 113, 114}, {115, 116, 117}, {118, 119, 120}, {121, 122, 123}, {124, 125, 126}, {127, 128, 129}, {130, 131, 132}, {133, 134, 135}, {136, 137, 138}, {139, 140, 141}, {142, 143, 144}, {145, 146, 147}, {148, 149, 150}, {151, 152, 153}, {154, 155, 156}, {157, 158, 159}, {160, 161, 162}, {163, 164, 165}, {166, 167, 168}, {169, 170, 171}, {172, 173, 174}, {175, 176, 177}, {178, 179, 180}, {181, 182, 183}, {184, 185, 186}, {187, 188, 189}, {190, 191, 192}, {193, 194, 195}, {196, 197, 198}, {199, 200, 201}, {202, 203, 204}, {205, 206, 207}, {208, 209, 210}, {211, 212, 213}, {214, 215, 216}, {217, 218, 219}, {220, 221, 222}, {223, 224, 225}, {226, 227, 228}, {229, 230, 231}, {232, 233, 234}, {235, 236, 237}, {238, 239, 240}, {241, 242, 243}, {244, 245, 246}, {247, 248, 249}, {250, 251, 252}, {253, 254, 255}, {256, 257, 258}, {259, 260, 261}, {262, 263, 264}, {265, 266, 267}, {268, 269, 270}, {271, 272, 273}, {274, 275, 276}, {277, 278, 279}, {280, 281, 282}, {283, 284, 285}, {286, 287, 288}, {289, 290, 291}, {292, 293, 294}, {295, 296, 297}, {298, 299, 300}];
succ =  [{97, 96, 70, 69, 68, 63, 62, 61, 58, 56, 53, 52, 51, 50, 46, 44, 32, 31, 30, 20}, {100, 97, 71, 70, 68, 64, 63, 62, 61, 59, 58, 54, 51, 48, 46, 45, 44, 23, 20}, {99, 98, 97, 96, 95, 67, 58, 57, 56, 55, 52, 50, 46, 45, 43, 41, 35, 30, 27}, {99, 96, 95, 92, 90, 87, 70, 69, 68, 67, 66, 63, 62, 56, 54, 53, 52, 51, 50, 47, 42, 37, 34}, {100, 99, 96, 90, 89, 87, 84, 71, 69, 68, 67, 66, 64, 62, 61, 54, 53, 51, 50, 45, 44, 36, 34}, {100, 99, 90, 89, 87, 70, 68, 67, 66, 64, 63, 61, 60, 56, 54, 52, 51, 50, 45, 40, 34}, {99, 97, 96, 92, 91, 70, 68, 67, 63, 62, 61, 58, 56, 53, 50, 46, 44, 36, 34}, {96, 95, 93, 70, 67, 58, 55, 53, 46, 45, 39, 37, 32}, {100, 97, 95, 92, 90, 68, 63, 62, 61, 60, 59, 57, 54, 53, 50, 47, 46, 34}, {100, 99, 97, 96, 95, 91, 84, 69, 67, 62, 53, 51, 46, 41, 30}, {98, 95, 89, 87, 70, 69, 67, 65, 62, 61, 56, 55, 52, 51, 49, 48, 44, 35}, {98, 95, 92, 90, 85, 84, 68, 67, 64, 60, 55, 50, 39, 37}, {96, 94, 91, 89, 88, 81, 78, 69, 67, 63, 60, 54, 53, 51, 50, 49, 48, 41}, {97, 96, 95, 93, 90, 88, 87, 81, 69, 68, 62, 60, 53, 51, 50, 47, 37}, {100, 97, 94, 93, 92, 86, 81, 80, 75, 69, 68, 67, 66, 61, 59, 47, 35}, {98, 96, 95, 92, 89, 86, 80, 69, 67, 64, 63, 62, 61, 52, 35}, {96, 93, 89, 87, 84, 82, 76, 71, 68, 61, 60, 54, 53, 52, 34}, {96, 95, 93, 92, 84, 83, 79, 75, 68, 67, 60, 53, 50, 48, 46}, {97, 92, 91, 87, 82, 68, 67, 61, 59, 55, 52, 49, 34}, {99, 95, 94, 93, 92, 89, 87, 86, 84, 81, 78, 75, 67, 60, 55, 35}, {95, 92, 91, 89, 87, 84, 82, 81, 80, 75, 69, 68, 67, 66, 61, 55, 54, 53}, {97, 96, 86, 85, 83, 82, 80, 76, 70, 69, 67, 63, 61, 55, 46}, {98, 95, 93, 90, 87, 83, 81, 79, 75, 74, 69, 66, 60, 53, 50}, {95, 91, 90, 89, 85, 84, 82, 80, 76, 69, 68, 66, 54, 52, 51}, {96, 95, 93, 91, 90, 89, 87, 86, 84, 79, 75, 57, 54, 45}, {96, 93, 92, 91, 87, 86, 85, 82, 81, 80, 77, 71, 66, 63, 51}, {93, 91, 90, 88, 87, 82, 81, 77, 76, 73, 63, 61, 60}, {89, 88, 87, 84, 83, 80, 77, 76, 75, 74, 72, 61, 53}, {92, 91, 90, 89, 87, 84, 83, 82, 76, 73, 60, 57}, {94, 93, 85, 83, 82, 81, 80, 79, 78, 77, 76, 75, 74, 73, 71}, {92, 91, 87, 84, 82, 80, 79, 78, 76, 75, 73, 72, 57}, {100, 88, 87, 84, 83, 82, 81, 79, 78, 77, 75, 73, 60}, {95, 94, 84, 81, 79, 76, 72, 69, 68, 67, 62}, {98, 94, 88, 86, 85, 83, 78, 77, 75, 74, 73, 72}, {91, 90, 88, 85, 83, 82, 79, 77, 76, 74, 73, 72}, {93, 88, 86, 85, 81, 80, 79, 78, 76, 74, 73, 72}, {94, 86, 83, 80, 77, 76, 75, 73, 72, 61}, {92, 87, 81, 77, 74, 72, 66, 56}, {97, 91, 89, 87, 74, 66, 52}, {95, 86, 81, 77, 76, 75, 74, 62}, {92, 90, 86, 85, 76, 75, 73, 68}, {97, 84, 82, 77, 75, 74, 60}, {91, 88, 83, 79, 77, 76, 75, 72}, {94, 93, 88, 78, 73, 60}, {92, 80, 78, 76, 74, 73, 72}, {89, 87, 81, 74, 72, 66}, {91, 89, 79, 78, 77, 72}, {90, 82, 76, 74, 73, 72}, {80, 79, 76, 74, 73, 72}, {82, 77, 76, 73, 72}, {83, 79, 75, 73, 72}, {88, 81, 75, 72}, {86, 85, 73}, {83, 73, 72}, {79, 77, 72}, {93, 75, 73}, {81, 77, 74}, {90, 80, 75}, {84, 83, 73}, {80, 72}, {79, 78}, {82, 73}, {84, 74}, {76, 74}, {76, 73}, {78}, {74}, {74}, {73}, {75}, {72}, {}, {}, {}, {}, {}, {}, {}, {}, {}, {}, {}, {}, {}, {}, {}, {}, {}, {}, {}, {}, {}, {}, {}, {}, {}, {}, {}, {}, {}];
n_opt = 300;
dur = [2, 7, 8, 5, 6, 7, 8, 9, 10, 2, 3, 3, 5, 6, 9, 2, 2, 9, 3, 7, 8, 1, 3, 8, 1, 2, 8, 5, 8, 10, 1, 3, 5, 1, 2, 3, 2, 7, 10, 5, 7, 8, 3, 9, 10, 2, 5, 6, 3, 4, 4, 2, 4, 7, 2, 6, 7, 1, 1, 1, 1, 7, 7, 1, 2, 8, 1, 2, 5, 1, 5, 10, 1, 7, 9, 6, 7, 9, 6, 9, 10, 5, 8, 9, 1, 9, 10, 3, 7, 7, 5, 9, 10, 2, 6, 8, 2, 4, 5, 1, 2, 6, 1, 4, 8, 3, 6, 8, 1, 4, 9, 1, 5, 8, 2, 7, 9, 2, 2, 5, 1, 6, 6, 2, 4, 10, 1, 4, 8, 4, 7, 9, 4, 8, 10, 3, 4, 7, 1, 4, 4, 2, 3, 5, 1, 2, 5, 1, 5, 7, 8, 8, 10, 3, 3, 4, 3, 6, 8, 5, 7, 9, 4, 6, 7, 3, 8, 9, 1, 1, 2, 4, 6, 9, 2, 3, 9, 3, 7, 9, 1, 4, 9, 1, 9, 10, 1, 2, 8, 6, 7, 7, 2, 2, 10, 4, 8, 10, 1, 3, 9, 3, 4, 7, 1, 9, 10, 6, 7, 8, 1, 6, 7, 5, 6, 8, 3, 4, 9, 5, 9, 10, 1, 4, 5, 2, 6, 10, 7, 8, 10, 6, 7, 10, 6, 7, 9, 4, 9, 10, 1, 7, 9, 2, 4, 6, 1, 4, 8, 3, 4, 9, 6, 6, 9, 2, 8, 9, 4, 5, 6, 8, 8, 9, 2, 10, 10, 1, 5, 7, 3, 4, 10, 1, 7, 10, 5, 9, 9, 3, 7, 8, 4, 5, 7, 5, 6, 10, 4, 7, 9, 3, 7, 7, 6, 9, 10, 2, 2, 5];
rreq = [|8, 0, 5, 0, 0, 0, 0, 6, 6, 0, 0, 6, 5, 2, 0, 0, 6, 0, 0, 7, 7, 0, 0, 0, 6, 6, 0, 0, 0, 6, 0, 8, 0, 3, 0, 0, 0, 0, 0, 0, 6, 6, 0, 7, 7, 7, 6, 0, 10, 8, 6, 9, 7, 0, 10, 0, 0, 9, 7, 0, 3, 0, 3, 8, 6, 0, 8, 0, 7, 5, 0, 0, 0, 0, 0, 8, 6, 0, 0, 0, 0, 0, 0, 0, 0, 3, 3, 4, 4, 4, 0, 5, 3, 0, 6, 6, 10, 0, 0, 0, 0, 2, 0, 0, 0, 0, 8, 0, 0, 0, 8, 0, 5, 1, 6, 5, 0, 0, 6, 5, 0, 7, 0, 0, 5, 0, 8, 0, 4, 6, 0, 2, 0, 7, 4, 7, 6, 6, 0, 7, 0, 0, 0, 3, 4, 4, 3, 10, 10, 0, 0, 9, 7, 2, 0, 0, 8, 8, 0, 3, 3, 3, 8, 0, 0, 0, 0, 0, 0, 2, 2, 0, 5, 5, 10, 6, 0, 5, 4, 0, 0, 4, 0, 9, 7, 3, 0, 0, 0, 0, 0, 6, 9, 0, 0, 0, 0, 0, 0, 8, 6, 0, 0, 0, 7, 0, 0, 0, 0, 8, 6, 6, 6, 0, 0, 1, 3, 2, 2, 4, 0, 0, 0, 4, 0, 0, 0, 0, 0, 0, 6, 8, 0, 0, 0, 4, 0, 0, 6, 5, 0, 6, 0, 5, 4, 3, 9, 7, 6, 6, 0, 5, 9, 6, 5, 9, 0, 3, 1, 1, 1, 0, 6, 6, 0, 8, 0, 7, 0, 5, 0, 5, 0, 0, 9, 8, 0, 0, 8, 0, 5, 4, 6, 3, 0, 0, 6, 0, 5, 0, 0, 9, 0, 0, 8, 0, 0, 0, 4, 0
 |0, 5, 0, 4, 4, 1, 3, 0, 0, 7, 7, 0, 0, 0, 6, 3, 0, 2, 6, 0, 0, 6, 4, 1, 0, 0, 4, 8, 8, 0, 9, 0, 1, 0, 7, 5, 5, 5, 5, 2, 0, 0, 4, 0, 0, 0, 0, 3, 0, 0, 0, 0, 0, 1, 0, 7, 6, 0, 0, 2, 0, 3, 0, 0, 0, 5, 0, 3, 0, 0, 8, 7, 9, 7, 4, 0, 0, 4, 3, 2, 2, 9, 8, 8, 3, 0, 0, 0, 0, 0, 6, 0, 0, 8, 0, 0, 0, 5, 5, 7, 7, 0, 8, 7, 6, 6, 0, 5, 2, 1, 0, 8, 0, 0, 0, 0, 2, 6, 0, 0, 5, 0, 5, 8, 0, 8, 0, 3, 0, 0, 4, 0, 10, 0, 0, 0, 0, 0, 9, 0, 7, 8, 8, 0, 0, 0, 0, 0, 0, 6, 8, 0, 0, 0, 6, 5, 0, 0, 5, 0, 0, 0, 0, 8, 7, 6, 6, 6, 3, 0, 0, 8, 0, 0, 0, 0, 5, 0, 0, 8, 9, 0, 7, 0, 0, 0, 7, 5, 3, 6, 5, 0, 0, 5, 2, 8, 5, 3, 5, 0, 0, 6, 3, 2, 0, 7, 5, 6, 4, 0, 0, 0, 0, 6, 5, 0, 0, 0, 0, 0, 9, 9, 7, 0, 2, 8, 6, 6, 10, 10, 0, 0, 4, 4, 6, 0, 5, 7, 0, 0, 4, 0, 4, 0, 0, 0, 0, 0, 0, 0, 4, 0, 0, 0, 0, 0, 6, 0, 0, 0, 0, 8, 0, 0, 9, 0, 9, 0, 7, 0, 7, 0, 6, 8, 0, 0, 3, 2, 0, 10, 0, 0, 0, 0, 1, 8, 0, 5, 0, 8, 8, 0, 3, 2, 0, 3, 3, 8, 0, 4
 |10, 9, 9, 7, 6, 5, 0, 4, 3, 10, 0, 2, 8, 0, 0, 0, 0, 3, 5, 6, 5, 0, 2, 2, 4, 3, 0, 5, 0, 0, 5, 0, 4, 4, 0, 4, 0, 0, 0, 0, 0, 3, 0, 0, 0, 0, 0, 0, 0, 0, 4, 0, 0, 0, 0, 0, 6, 7, 0, 4, 4, 0, 2, 8, 0, 6, 0, 0, 2, 7, 0, 2, 0, 9, 8, 0, 0, 3, 0, 0, 0, 8, 0, 0, 0, 3, 0, 8, 7, 0, 0, 7, 0, 9, 8, 7, 0, 8, 0, 5, 3, 3, 10, 8, 0, 8, 6, 0, 0, 0, 0, 0, 4, 0, 0, 0, 0, 8, 7, 6, 6, 0, 2, 10, 0, 4, 0, 1, 1, 0, 0, 0, 0, 0, 0, 2, 2, 0, 3, 2, 0, 7, 5, 5, 7, 6, 5, 2, 0, 2, 8, 0, 2, 0, 0, 0, 7, 0, 6, 0, 0, 0, 6, 0, 0, 0, 4, 2, 7, 0, 0, 0, 0, 3, 0, 4, 0, 0, 0, 0, 0, 5, 0, 8, 6, 0, 0, 0, 6, 0, 0, 0, 0, 0, 5, 0, 8, 6, 7, 6, 0, 0, 6, 0, 5, 4, 2, 0, 0, 0, 0, 0, 7, 7, 0, 0, 0, 0, 6, 0, 6, 5, 5, 0, 4, 0, 8, 7, 0, 4, 0, 9, 0, 3, 8, 0, 6, 4, 4, 4, 8, 4, 3, 0, 2, 2, 8, 5, 2, 0, 8, 0, 0, 9, 9, 0, 4, 2, 0, 0, 0, 0, 7, 6, 4, 4, 0, 7, 0, 1, 8, 8, 7, 0, 0, 0, 4, 3, 1, 4, 0, 1, 9, 6, 0, 0, 8, 8, 10, 8, 7, 0, 6, 0, 3, 0, 2, 6, 0, 0
 |0, 0, 0, 0, 0, 0, 9, 0, 0, 0, 3, 0, 0, 4, 3, 5, 5, 0, 0, 0, 0, 10, 0, 0, 0, 0, 8, 0, 2, 1, 0, 5, 0, 0, 5, 0, 6, 5, 4, 7, 6, 0, 3, 3, 2, 7, 5, 1, 2, 2, 0, 4, 3, 1, 5, 3, 0, 0, 7, 0, 0, 6, 0, 0, 5, 0, 5, 3, 0, 0, 6, 0, 9, 0, 0, 9, 7, 0, 7, 6, 5, 0, 8, 7, 3, 0, 2, 0, 0, 3, 2, 0, 2, 0, 0, 0, 5, 0, 3, 0, 0, 0, 0, 0, 6, 0, 0, 4, 9, 9, 9, 10, 0, 3, 7, 5, 2, 0, 0, 0, 0, 3, 0, 0, 6, 0, 4, 0, 0, 10, 7, 4, 8, 8, 6, 0, 0, 4, 0, 0, 3, 0, 0, 0, 0, 0, 0, 0, 2, 0, 0, 8, 0, 5, 5, 5, 0, 4, 0, 8, 7, 3, 0, 9, 8, 7, 0, 0, 0, 6, 4, 10, 9, 0, 9, 0, 7, 7, 6, 6, 5, 0, 3, 0, 0, 7, 3, 3, 0, 6, 6, 6, 4, 3, 0, 8, 0, 0, 0, 0, 4, 8, 0, 7, 0, 0, 0, 6, 6, 5, 10, 9, 0, 0, 9, 9, 3, 3, 0, 6, 0, 0, 0, 7, 0, 9, 0, 0, 4, 0, 3, 0, 1, 0, 0, 6, 0, 0, 0, 0, 0, 0, 0, 5, 0, 0, 0, 0, 0, 4, 0, 3, 8, 0, 0, 8, 0, 0, 9, 7, 5, 4, 0, 0, 0, 0, 8, 0, 2, 0, 0, 0, 0, 7, 7, 5, 0, 0, 0, 0, 8, 0, 0, 0, 5, 7, 0, 0, 0, 0, 0, 10, 0, 7, 0, 7, 0, 0, 10, 10|];